20	5
0	7	4	3	6	1	5	7	2
1	7	20	13	15	11	12	16	17
2	3	12	13	20
3	5	8	13	9	17	10
4	4	9	20	17	8
5	9	11	15	14	20	17	19	18	13	12
6	6	20	18	19	14	16	12
7	4	9	13	8	12
8	4	11	18	15	19
9	5	18	19	11	16	14
10	6	18	15	11	16	20	19
11	1	21
12	1	21
13	1	21
14	1	21
15	1	21
16	1	21
17	1	21
18	1	21
19	1	21
20	1	21
21	0
0	0	0	0	0	0	0
1	10	1	2	1	0	2
2	4	3	0	0	1	2
3	8	0	0	0	4	3
4	4	1	0	3	2	5
5	10	0	0	3	0	4
6	6	4	2	0	0	5
7	5	5	4	3	4	0
8	10	0	1	3	0	0
9	10	0	0	3	0	0
10	2	3	0	2	4	0
11	8	2	0	0	3	0
12	9	3	0	0	0	0
13	7	3	5	0	0	0
14	8	0	4	3	0	0
15	10	0	1	0	0	0
16	1	0	0	5	4	0
17	6	3	0	0	0	5
18	10	1	2	2	0	0
19	5	0	0	1	0	1
20	6	3	1	1	5	4
21	0	0	0	0	0	0
9	6	7	8	12
